Problem:    
Rows:       256
Columns:    89 (72 integer, 72 binary)
Non-zeros:  800
Status:     INTEGER OPTIMAL
Objective:  value = 83.83137 (MINimum)

   No.   Row name        Activity     Lower bound   Upper bound
------ ------------    ------------- ------------- -------------
     1 r.5                   1083.83             0               
     2 r.6                   -944.44      -985.464               
     3 r.7                   83.8314             0               
     4 r.8                   58.7197      -980.689               
     5 r.9                   83.8314             0               
     6 r.10                 -984.228      -984.734               
     7 r.11                  1083.83             0               
     8 r.12                 -961.416      -979.296               
     9 r.13                  1083.83             0               
    10 r.14                 -958.976      -973.241               
    11 r.15                  83.8314             0               
    12 r.16                  41.0241      -964.898               
    13 r.17                  1083.83             0               
    14 r.18                 -985.735       -986.24               
    15 r.19                  83.8314             0               
    16 r.20                  14.2652      -982.032               
    17 r.21                  83.8314             0               
    18 r.22                  41.0241      -986.774               
    19 r.23                  1083.83             0               
    20 r.24                 -982.119      -982.624               
    21 r.25                  1083.83             0               
    22 r.26                 -999.495      -999.495               
    23 r.27                  83.8314             0               
    24 r.28                 0.505111      -999.173               
    25 r.29                  1083.83             0               
    26 r.30                 -916.169      -974.888               
    27 r.31                  83.8314             0               
    28 r.32                  83.8314      -964.376               
    29 r.33                  83.8314             0               
    30 r.34                  83.8314      -962.836               
    31 r.35                  1083.83             0               
    32 r.36                 -916.169      -957.193               
    33 r.37                        1             1             = 
    34 r.38                        1             1             = 
    35 r.39                        1             1             = 
    36 r.40                        1             1             = 
    37 r.41                        1             1             = 
    38 r.42                        1             1             = 
    39 r.43                        1             1             = 
    40 r.44                        1             1             = 
    41 r.45                     1001             2               
    42 r.46                    -1001         -1001               
    43 r.47                  960.212      -984.734               
    44 r.48                     1001             2               
    45 r.49                    -1001         -1001               
    46 r.50                  1979.86      -979.296               
    47 r.51                        2             2               
    48 r.52                       -2         -1001               
    49 r.53                 -14.5359      -973.241               
    50 r.54                     1000             2               
    51 r.55                    -1000         -1001               
    52 r.56                   1982.3      -964.898               
    53 r.57                        2             2               
    54 r.58                       -2         -1001               
    55 r.59                 -41.2948       -986.24               
    56 r.60                     1000             2               
    57 r.61                    -1000         -1001               
    58 r.62                  1955.55      -982.032               
    59 r.63                     1001             2               
    60 r.64                    -1001         -1001               
    61 r.65                  1985.46      -986.774               
    62 r.66                     1001             2               
    63 r.67                    -1001         -1001               
    64 r.68                  1959.16      -982.624               
    65 r.69                 -944.945      -985.464               
    66 r.70                  58.2146      -980.689               
    67 r.71                 -944.945      -985.464               
    68 r.72                  58.2146      -980.689               
    69 r.73                 -971.729      -974.888               
    70 r.74                  28.2713      -964.376               
    71 r.75                 -974.888      -974.888               
    72 r.76                  25.1117      -964.376               
    73 r.77                     1001             2               
    74 r.78                    -1001         -1001               
    75 r.79                  2028.27      -962.836               
    76 r.80                     1001             2               
    77 r.81                    -1001         -1001               
    78 r.82                  2025.11      -957.193               
    79 r.83                     1001             2               
    80 r.84                    -1001         -1001               
    81 r.85                  3039.79       14.5359               
    82 r.86                     1001             2               
    83 r.87                    -1001         -1001               
    84 r.88                  2020.14       19.3112               
    85 r.89                     1001             2               
    86 r.90                    -1001         -1001               
    87 r.91                  3025.25      -973.241               
    88 r.92                     1001             2               
    89 r.93                    -1001         -1001               
    90 r.94                  2002.44      -964.898               
    91 r.95                     1001             2               
    92 r.96                    -1001         -1001               
    93 r.97                  2998.49       -986.24               
    94 r.98                     1001             2               
    95 r.99                    -1001         -1001               
    96 r.100                 1975.68      -982.032               
    97 r.101                    1000             2               
    98 r.102                   -1000         -1001               
    99 r.103                 3025.25      -986.774               
   100 r.104                       2             2               
   101 r.105                      -2         -1001               
   102 r.106                -20.7037      -982.624               
   103 r.107                -984.734      -984.734               
   104 r.108                -961.921      -979.296               
   105 r.109                -984.734      -984.734               
   106 r.110                -961.921      -979.296               
   107 r.111                    1001             2               
   108 r.112                   -1001         -1001               
   109 r.113                 3068.06      -974.888               
   110 r.114                    1001             2               
   111 r.115                   -1001         -1001               
   112 r.116                 2045.25      -964.376               
   113 r.117                 1068.06      -962.836               
   114 r.118                 68.0598      -957.193               
   115 r.119                 45.2469      -962.836               
   116 r.120                -954.753      -957.193               
   117 r.121                       2             2               
   118 r.122                      -2         -1001               
   119 r.123                 14.5359       14.5359               
   120 r.124                    1000             2               
   121 r.125                   -1000         -1001               
   122 r.126                  2017.7       19.3112               
   123 r.127                    1001             2               
   124 r.128                   -1001         -1001               
   125 r.129                 974.747       15.2664               
   126 r.130                    1001             2               
   127 r.131                   -1001         -1001               
   128 r.132                 1997.56       20.7037               
   129 r.133                -973.241      -973.241               
   130 r.134                 26.7589      -964.898               
   131 r.135                -973.241      -973.241               
   132 r.136                 26.7589      -964.898               
   133 r.137                    1001             2               
   134 r.138                   -1001         -1001               
   135 r.139                    2000      -986.774               
   136 r.140                    1001             2               
   137 r.141                   -1001         -1001               
   138 r.142                 1976.86      -982.624               
   139 r.143                -959.481      -973.241               
   140 r.144                  40.519      -964.898               
   141 r.145                -959.481      -973.241               
   142 r.146                  40.519      -964.898               
   143 r.147                       2             2               
   144 r.148                      -2         -1001               
   145 r.149                -957.193      -974.888               
   146 r.150                    1000             2               
   147 r.151                   -1000         -1001               
   148 r.152                 2042.81      -964.376               
   149 r.153                 42.8073      -962.836               
   150 r.154                -957.193      -957.193               
   151 r.155                 42.8073      -962.836               
   152 r.156                -957.193      -957.193               
   153 r.157                       2             2               
   154 r.158                      -2         -1001               
   155 r.159                 41.2948       14.5359               
   156 r.160                    1000             2               
   157 r.161                   -1000         -1001               
   158 r.162                 2044.45       19.3112               
   159 r.163                    1001             2               
   160 r.164                   -1001         -1001               
   161 r.165                 1001.51       15.2664               
   162 r.166                    1001             2               
   163 r.167                   -1001         -1001               
   164 r.168                 2024.32       20.7037               
   165 r.169                    1001             2               
   166 r.170                   -1001         -1001               
   167 r.171                 2026.76      -986.774               
   168 r.172                    1001             2               
   169 r.173                   -1001         -1001               
   170 r.174                 2003.62      -982.624               
   171 r.175                 -986.24       -986.24               
   172 r.176                 13.7601      -982.032               
   173 r.177                 -986.24       -986.24               
   174 r.178                 13.7601      -982.032               
   175 r.179                       2             2               
   176 r.180                      -2         -1001               
   177 r.181                -930.434      -974.888               
   178 r.182                    1000             2               
   179 r.183                   -1000         -1001               
   180 r.184                 2069.57      -964.376               
   181 r.185                 69.5662      -962.836               
   182 r.186                -930.434      -957.193               
   183 r.187                 69.5662      -962.836               
   184 r.188                -930.434      -957.193               
   185 r.189                    1001             2               
   186 r.190                   -1001         -1001               
   187 r.191                 2014.54       14.5359               
   188 r.192                    1001             2               
   189 r.193                   -1001         -1001               
   190 r.194                 2040.84       19.3112               
   191 r.195                    1000             2               
   192 r.196                   -1000         -1001               
   193 r.197                 974.747       15.2664               
   194 r.198                       2             2               
   195 r.199                      -2         -1001               
   196 r.200                 20.7037       20.7037               
   197 r.201                    1001             2               
   198 r.202                   -1001         -1001               
   199 r.203                    2000       26.7589               
   200 r.204                    1001             2               
   201 r.205                   -1001         -1001               
   202 r.206                 2023.14       35.1018               
   203 r.207                    1001             2               
   204 r.208                   -1001         -1001               
   205 r.209                 1973.24       13.7601               
   206 r.210                    1001             2               
   207 r.211                   -1001         -1001               
   208 r.212                 1996.38       17.9676               
   209 r.213                  40.519      -986.774               
   210 r.214                -982.624      -982.624               
   211 r.215                  40.519      -986.774               
   212 r.216                -982.624      -982.624               
   213 r.217                -957.193      -974.888               
   214 r.218                 42.8073      -964.376               
   215 r.219                -934.049      -974.888               
   216 r.220                 65.9506      -964.376               
   217 r.221                 42.8073      -962.836               
   218 r.222                -957.193      -957.193               
   219 r.223                 65.9506      -962.836               
   220 r.224                -934.049      -957.193               
   221 r.225                    1001             2               
   222 r.226                   -1001         -1001               
   223 r.227                  931.94       15.2664               
   224 r.228                    1001             2               
   225 r.229                   -1001         -1001               
   226 r.230                 1954.75       20.7037               
   227 r.231                       2             2               
   228 r.232                      -2         -1001               
   229 r.233                 957.193       26.7589               
   230 r.234                    1000             2               
   231 r.235                   -1000         -1001               
   232 r.236                 1957.19       35.1018               
   233 r.237                       2             2               
   234 r.238                      -2         -1001               
   235 r.239                 930.434       13.7601               
   236 r.240                    1000             2               
   237 r.241                   -1000         -1001               
   238 r.242                 1930.43       17.9676               
   239 r.243                    1001             2               
   240 r.244                   -1001         -1001               
   241 r.245                    2000      -962.836               
   242 r.246                    1001             2               
   243 r.247                   -1001         -1001               
   244 r.248                    2000      -957.193               
   245 r.249                    1001             2               
   246 r.250                   -1001         -1001               
   247 r.251                 1971.73       14.5359               
   248 r.252                    1001             2               
   249 r.253                   -1001         -1001               
   250 r.254                 1974.89       19.3112               
   251 r.255                    1001             2               
   252 r.256                   -1001         -1001               
   253 r.257                    2000       25.1117               
   254 r.258                    1001             2               
   255 r.259                   -1001         -1001               
   256 r.260                    2000        35.624               

   No. Column name       Activity     Lower bound   Upper bound
------ ------------    ------------- ------------- -------------
     1 tt                    83.8314             0               
     2 s_1_1        *              1             0             1 
     3 t_1_1                 28.2713             0               
     4 s_1_7        *              1             0             1 
     5 s_2_1        *              0             0             1 
     6 t_2_1                 25.1117             0               
     7 s_2_7        *              0             0             1 
     8 s_1_2        *              0             0             1 
     9 t_1_2                 1068.06             0               
    10 s_1_8        *              0             0             1 
    11 s_2_2        *              1             0             1 
    12 t_2_2                 45.2469             0               
    13 s_2_8        *              1             0             1 
    14 s_1_3        *              1             0             1 
    15 t_1_3                 42.8073             0               
    16 s_2_3        *              0             0             1 
    17 t_2_3                 42.8073             0               
    18 s_1_4        *              1             0             1 
    19 t_1_4                 69.5662             0               
    20 s_2_4        *              0             0             1 
    21 t_2_4                 69.5662             0               
    22 s_1_5        *              0             0             1 
    23 t_1_5                 42.8073             0               
    24 s_2_5        *              1             0             1 
    25 t_2_5                 65.9506             0               
    26 s_1_6        *              1             0             1 
    27 t_1_6                 83.3263             0               
    28 s_2_6        *              0             0             1 
    29 t_2_6                 83.3263             0               
    30 t_1_7                       0             0               
    31 t_2_7                       0             0               
    32 t_1_8                       0             0               
    33 t_2_8                       0             0               
    34 r_1_1_2      *              1             0             1 
    35 u_1_1_2      *              0             0             1 
    36 r_2_1_2      *              1             0             1 
    37 u_2_1_2      *              0             0             1 
    38 r_1_1_3      *              0             0             1 
    39 u_1_1_3      *              0             0             1 
    40 r_2_1_3      *              1             0             1 
    41 u_2_1_3      *              0             0             1 
    42 r_1_1_4      *              0             0             1 
    43 u_1_1_4      *              0             0             1 
    44 r_2_1_4      *              1             0             1 
    45 u_2_1_4      *              0             0             1 
    46 r_1_1_5      *              1             0             1 
    47 u_1_1_5      *              0             0             1 
    48 r_2_1_5      *              1             0             1 
    49 u_2_1_5      *              0             0             1 
    50 r_1_1_8      *              1             0             1 
    51 u_1_1_8      *              0             0             1 
    52 r_2_1_8      *              1             0             1 
    53 u_2_1_8      *              0             0             1 
    54 r_1_2_3      *              1             0             1 
    55 u_1_2_3      *              0             0             1 
    56 r_2_2_3      *              1             0             1 
    57 u_2_2_3      *              0             0             1 
    58 r_1_2_4      *              1             0             1 
    59 u_1_2_4      *              0             0             1 
    60 r_2_2_4      *              1             0             1 
    61 u_2_2_4      *              0             0             1 
    62 r_1_2_5      *              1             0             1 
    63 u_1_2_5      *              0             0             1 
    64 r_2_2_5      *              0             0             1 
    65 u_2_2_5      *              0             0             1 
    66 r_1_2_7      *              1             0             1 
    67 u_1_2_7      *              0             0             1 
    68 r_2_2_7      *              1             0             1 
    69 u_2_2_7      *              0             0             1 
    70 r_1_3_5      *              1             0             1 
    71 u_1_3_5      *              0             0             1 
    72 r_2_3_5      *              1             0             1 
    73 u_2_3_5      *              0             0             1 
    74 r_1_3_7      *              0             0             1 
    75 u_1_3_7      *              1             0             1 
    76 r_2_3_7      *              1             0             1 
    77 u_2_3_7      *              0             0             1 
    78 r_1_4_5      *              1             0             1 
    79 u_1_4_5      *              0             0             1 
    80 r_2_4_5      *              1             0             1 
    81 u_2_4_5      *              0             0             1 
    82 r_1_4_7      *              0             0             1 
    83 u_1_4_7      *              1             0             1 
    84 r_2_4_7      *              1             0             1 
    85 u_2_4_7      *              0             0             1 
    86 r_1_7_8      *              1             0             1 
    87 u_1_7_8      *              0             0             1 
    88 r_2_7_8      *              1             0             1 
    89 u_2_7_8      *              0             0             1 

Integer feasibility conditions:

KKT.PE: max.abs.err = 4.55e-13 on row 93
        max.rel.err = 1.10e-16 on row 190
        High quality

KKT.PB: max.abs.err = 1.14e-13 on row 22
        max.rel.err = 1.64e-16 on row 196
        High quality

End of output
